
Starting CP-SAT solver v9.14.6206
Parameters: log_search_progress: true relative_gap_limit: 0
Setting number of workers to 20

Initial optimization model '': (model_fingerprint: 0x32154672bf231b88)
#Variables: 201 (#ints: 1 in objective) (200 primary variables)
  - 201 in [0,5109]
#kInterval: 100
#kLinear1: 10
#kLinear2: 100
#kNoOverlap: 10 (#intervals: 100)

Starting presolve at 0.00s
  4.70e-05s  0.00e+00d  [DetectDominanceRelations] 
  1.19e-03s  0.00e+00d  [operations_research::sat::CpModelPresolver::PresolveToFixPoint] #num_loops=10 #num_dual_strengthening=1 
  3.60e-06s  0.00e+00d  [operations_research::sat::CpModelPresolver::ExtractEncodingFromLinear] 
  2.87e-05s  0.00e+00d  [operations_research::sat::CpModelPresolver::DetectDuplicateColumns] 
  4.97e-05s  0.00e+00d  [operations_research::sat::CpModelPresolver::DetectDuplicateConstraints] 
[Symmetry] Graph for symmetry has 502 nodes and 491 arcs.
[Symmetry] Symmetry computation done. time: 3.69e-05 dtime: 4.668e-05
  4.43e-05s  0.00e+00d  [operations_research::sat::CpModelPresolver::DetectDuplicateConstraintsWithDifferentEnforcements] 
  4.62e-04s  1.51e-06d  [operations_research::sat::CpModelPresolver::Probe] 
  3.90e-06s  0.00e+00d  [MaxClique] 
  2.99e-05s  0.00e+00d  [DetectDominanceRelations] 
  2.03e-04s  0.00e+00d  [operations_research::sat::CpModelPresolver::PresolveToFixPoint] #num_loops=1 #num_dual_strengthening=1 
  2.12e-05s  0.00e+00d  [operations_research::sat::CpModelPresolver::ProcessAtMostOneAndLinear] 
  3.76e-05s  0.00e+00d  [operations_research::sat::CpModelPresolver::DetectDuplicateConstraints] 
  3.62e-05s  0.00e+00d  [operations_research::sat::CpModelPresolver::DetectDuplicateConstraintsWithDifferentEnforcements] 
  2.74e-05s  6.00e-07d  [operations_research::sat::CpModelPresolver::DetectDominatedLinearConstraints] #relevant_constraints=100 
  2.05e-05s  0.00e+00d  [operations_research::sat::CpModelPresolver::DetectDifferentVariables] 
  1.60e-06s  0.00e+00d  [operations_research::sat::CpModelPresolver::ProcessSetPPC] 
  2.60e-06s  0.00e+00d  [operations_research::sat::CpModelPresolver::FindAlmostIdenticalLinearConstraints] 
  5.60e-06s  0.00e+00d  [operations_research::sat::CpModelPresolver::FindBigAtMostOneAndLinearOverlap] 
  1.61e-05s  3.60e-06d  [operations_research::sat::CpModelPresolver::FindBigVerticalLinearOverlap] 
  1.70e-06s  0.00e+00d  [operations_research::sat::CpModelPresolver::FindBigHorizontalLinearOverlap] 
  2.70e-06s  0.00e+00d  [operations_research::sat::CpModelPresolver::MergeClauses] 
  2.49e-05s  0.00e+00d  [DetectDominanceRelations] 
  1.73e-04s  0.00e+00d  [operations_research::sat::CpModelPresolver::PresolveToFixPoint] #num_loops=1 #num_dual_strengthening=1 
  2.41e-05s  0.00e+00d  [DetectDominanceRelations] 
  1.70e-04s  0.00e+00d  [operations_research::sat::CpModelPresolver::PresolveToFixPoint] #num_loops=1 #num_dual_strengthening=1 
  9.40e-06s  0.00e+00d  [operations_research::sat::CpModelPresolver::DetectDuplicateColumns] 
  4.21e-05s  0.00e+00d  [operations_research::sat::CpModelPresolver::DetectDuplicateConstraints] 
[Symmetry] Graph for symmetry has 502 nodes and 491 arcs.
[Symmetry] Symmetry computation done. time: 2.66e-05 dtime: 4.668e-05
  3.83e-05s  0.00e+00d  [operations_research::sat::CpModelPresolver::DetectDuplicateConstraintsWithDifferentEnforcements] 
  2.95e-04s  1.51e-06d  [operations_research::sat::CpModelPresolver::Probe] 
  2.10e-06s  0.00e+00d  [MaxClique] 
  2.61e-05s  0.00e+00d  [DetectDominanceRelations] 
  1.79e-04s  0.00e+00d  [operations_research::sat::CpModelPresolver::PresolveToFixPoint] #num_loops=1 #num_dual_strengthening=1 
  2.09e-05s  0.00e+00d  [operations_research::sat::CpModelPresolver::ProcessAtMostOneAndLinear] 
  3.61e-05s  0.00e+00d  [operations_research::sat::CpModelPresolver::DetectDuplicateConstraints] 
  3.55e-05s  0.00e+00d  [operations_research::sat::CpModelPresolver::DetectDuplicateConstraintsWithDifferentEnforcements] 
  2.12e-05s  6.00e-07d  [operations_research::sat::CpModelPresolver::DetectDominatedLinearConstraints] #relevant_constraints=100 
  1.86e-05s  0.00e+00d  [operations_research::sat::CpModelPresolver::DetectDifferentVariables] 
  2.00e-06s  0.00e+00d  [operations_research::sat::CpModelPresolver::ProcessSetPPC] 
  2.60e-06s  0.00e+00d  [operations_research::sat::CpModelPresolver::FindAlmostIdenticalLinearConstraints] 
  5.10e-06s  0.00e+00d  [operations_research::sat::CpModelPresolver::FindBigAtMostOneAndLinearOverlap] 
  1.38e-05s  3.60e-06d  [operations_research::sat::CpModelPresolver::FindBigVerticalLinearOverlap] 
  1.60e-06s  0.00e+00d  [operations_research::sat::CpModelPresolver::FindBigHorizontalLinearOverlap] 
  2.60e-06s  0.00e+00d  [operations_research::sat::CpModelPresolver::MergeClauses] 
  2.81e-05s  0.00e+00d  [DetectDominanceRelations] 
  1.99e-04s  0.00e+00d  [operations_research::sat::CpModelPresolver::PresolveToFixPoint] #num_loops=1 #num_dual_strengthening=1 
  6.70e-06s  0.00e+00d  [operations_research::sat::CpModelPresolver::ExpandObjective] 

Presolve summary:
  - 100 affine relations were detected.
  - rule 'TODO dual: only one blocking constraint?' was applied 60 times.
  - rule 'TODO dual: only one unspecified blocking constraint?' was applied 6 times.
  - rule 'affine: new relation' was applied 100 times.
  - rule 'linear: always true' was applied 10 times.
  - rule 'linear: reduced variable domains' was applied 554 times.
  - rule 'linear: remapped using affine relations' was applied 200 times.
  - rule 'presolve: 0 unused variables removed.' was applied 1 time.
  - rule 'presolve: iteration' was applied 2 times.

Presolved optimization model '': (model_fingerprint: 0x560eed1af2ecb2ff)
#Variables: 101 (#ints: 1 in objective) (100 primary variables)
  - 101 different domains in [0,5109] with a largest complexity of 1.
#kInterval: 100
#kLinear2: 100
#kNoOverlap: 10 (#intervals: 100)
[Symmetry] Graph for symmetry has 402 nodes and 491 arcs.
[Symmetry] Symmetry computation done. time: 4.17e-05 dtime: 4.068e-05

Preloading model.
#Bound   0.01s best:inf   next:[655,5109] initial_domain
#Model   0.01s var:101/101 constraints:210/210

Starting search at 0.01s with 20 workers.
13 full problem subsolvers: [default_lp, fixed, lb_tree_search, max_lp, no_lp, objective_lb_search, objective_shaving_max_lp, objective_shaving_no_lp, probing, pseudo_costs, quick_restart, quick_restart_no_lp, reduced_costs]
7 first solution subsolvers: [fj(2), fj_lin, fs_random, fs_random_no_lp, fs_random_quick_restart, fs_random_quick_restart_no_lp]
17 interleaved subsolvers: [feasibility_pump, graph_arc_lns, graph_cst_lns, graph_dec_lns, graph_var_lns, lb_relax_lns, ls(2), ls_lin, rins/rens, rnd_cst_lns, rnd_var_lns, scheduling_intervals_lns, scheduling_precedences_lns, scheduling_resource_windows_lns, scheduling_time_window_lns, variables_shaving]
3 helper subsolvers: [neighborhood_helper, synchronization_agent, update_gap_integral]

#1       0.01s best:1108  next:[655,1107] no_lp
#Bound   0.01s best:1108  next:[808,1107] no_lp
#2       0.01s best:1098  next:[808,1097] no_lp
#3       0.02s best:1096  next:[808,1095] graph_cst_lns (d=5.00e-01 s=24 t=0.10 p=0.00 stall=0 h=base)
#4       0.03s best:1071  next:[808,1070] quick_restart
#Bound   0.03s best:1071  next:[814,1070] objective_shaving_no_lp (vars=100 csts=200)
#5       0.03s best:1064  next:[814,1063] default_lp
#Bound   0.04s best:1064  next:[838,1063] objective_shaving_max_lp (vars=100 csts=200)
#6       0.04s best:1063  next:[838,1062] graph_arc_lns (d=7.07e-01 s=42 t=0.10 p=1.00 stall=0 h=base) [hint]
#7       0.05s best:1049  next:[838,1048] graph_var_lns (d=7.07e-01 s=39 t=0.10 p=1.00 stall=0 h=base)
#8       0.05s best:1046  next:[838,1045] graph_cst_lns (d=7.07e-01 s=43 t=0.10 p=1.00 stall=0 h=base)
#9       0.05s best:1043  next:[838,1042] quick_restart_no_lp
#Bound   0.05s best:1043  next:[843,1042] objective_lb_search
#Bound   0.05s best:1043  next:[844,1042] objective_lb_search
#Bound   0.05s best:1043  next:[845,1042] objective_lb_search
#Bound   0.05s best:1043  next:[850,1042] objective_lb_search
#Bound   0.05s best:1043  next:[853,1042] objective_lb_search
#10      0.06s best:1039  next:[853,1038] fixed
#11      0.06s best:1038  next:[853,1037] fixed
#Bound   0.07s best:1038  next:[854,1037] reduced_costs
#12      0.07s best:1023  next:[854,1022] lb_relax_lns_bool_h (d=7.07e-01 s=45 t=0.50 p=1.00 stall=0 h=base)
#Bound   0.07s best:1023  next:[867,1022] objective_shaving_no_lp (vars=100 csts=200)
#13      0.08s best:1022  next:[867,1021] quick_restart_no_lp
#14      0.08s best:1014  next:[867,1013] quick_restart_no_lp
#15      0.10s best:974   next:[867,973]  quick_restart
#16      0.10s best:969   next:[867,968]  quick_restart
#17      0.11s best:961   next:[867,960]  graph_cst_lns (d=8.14e-01 s=58 t=0.10 p=1.00 stall=0 h=base)
#Bound   0.12s best:961   next:[868,960]  reduced_costs
#18      0.12s best:958   next:[868,957]  scheduling_resource_windows_lns (d=8.14e-01 s=61 t=0.10 p=1.00 stall=0 h=base)
#Bound   0.13s best:958   next:[869,957]  reduced_costs
#19      0.13s best:957   next:[869,956]  rnd_cst_lns (d=8.76e-01 s=71 t=0.10 p=1.00 stall=0 h=base) [hint]
#20      0.14s best:956   next:[869,955]  graph_var_lns (d=8.76e-01 s=72 t=0.10 p=1.00 stall=0 h=base)
#Bound   0.14s best:956   next:[870,955]  reduced_costs
#Bound   0.15s best:956   next:[871,955]  reduced_costs
#21      0.15s best:955   next:[871,954]  graph_dec_lns (d=8.76e-01 s=76 t=0.10 p=1.00 stall=0 h=base) [hint]
#22      0.15s best:944   next:[871,943]  scheduling_time_window_lns (d=5.00e-01 s=64 t=0.10 p=0.00 stall=0 h=base)
#Bound   0.16s best:944   next:[872,943]  reduced_costs
#23      0.18s best:943   next:[872,942]  quick_restart
#Bound   0.18s best:943   next:[873,942]  reduced_costs
#24      0.18s best:939   next:[873,938]  quick_restart_no_lp
#25      0.18s best:938   next:[873,937]  rnd_var_lns (d=9.14e-01 s=84 t=0.10 p=1.00 stall=0 h=base)
#Bound   0.20s best:938   next:[874,937]  reduced_costs
#Bound   0.28s best:938   next:[875,937]  reduced_costs
#Bound   0.31s best:938   next:[876,937]  reduced_costs
#Bound   0.33s best:938   next:[877,937]  reduced_costs
#26      0.43s best:937   next:[879,936]  quick_restart_no_lp
#27      0.90s best:930   next:[886,929]  rnd_cst_lns (d=9.67e-01 s=140 t=0.10 p=1.00 stall=0 h=base)
#Bound   0.94s best:930   next:[887,929]  reduced_costs [skipped_logs=9]
#Bound   1.91s best:930   next:[897,929]  reduced_costs [skipped_logs=9]
#Done    2.36s no_lp
#Done    2.36s probing
#Bound   2.29s best:930   next:[900,929]  reduced_costs [skipped_logs=2]

Task timing                                  n [     min,      max]      avg      dev     time         n [     min,      max]      avg      dev    dtime
                       'default_lp':         1 [   2.36s,    2.36s]    2.36s   0.00ns    2.36s         1 [491.78ms, 491.78ms] 491.78ms   0.00ns 491.78ms
                 'feasibility_pump':        12 [ 72.50us,   1.22ms] 218.00us 333.66us   2.62ms        11 [ 13.78us,  73.96us]  19.25us  17.30us 211.72us
                            'fixed':         1 [   2.36s,    2.36s]    2.36s   0.00ns    2.36s         1 [248.43ms, 248.43ms] 248.43ms   0.00ns 248.43ms
                               'fj':         0 [  0.00ns,   0.00ns]   0.00ns   0.00ns   0.00ns         0 [  0.00ns,   0.00ns]   0.00ns   0.00ns   0.00ns
                               'fj':         1 [ 86.60ms,  86.60ms]  86.60ms   0.00ns  86.60ms         1 [100.02ms, 100.02ms] 100.02ms   0.00ns 100.02ms
                           'fj_lin':         0 [  0.00ns,   0.00ns]   0.00ns   0.00ns   0.00ns         0 [  0.00ns,   0.00ns]   0.00ns   0.00ns   0.00ns
                        'fs_random':         1 [143.70us, 143.70us] 143.70us   0.00ns 143.70us         0 [  0.00ns,   0.00ns]   0.00ns   0.00ns   0.00ns
                  'fs_random_no_lp':         1 [145.50us, 145.50us] 145.50us   0.00ns 145.50us         0 [  0.00ns,   0.00ns]   0.00ns   0.00ns   0.00ns
          'fs_random_quick_restart':         1 [150.70us, 150.70us] 150.70us   0.00ns 150.70us         0 [  0.00ns,   0.00ns]   0.00ns   0.00ns   0.00ns
    'fs_random_quick_restart_no_lp':         1 [192.30us, 192.30us] 192.30us   0.00ns 192.30us         0 [  0.00ns,   0.00ns]   0.00ns   0.00ns   0.00ns
                    'graph_arc_lns':        11 [  4.09ms, 624.57ms] 117.80ms 201.27ms    1.30s        11 [ 12.60us,  59.41ms]  11.05ms  19.52ms 121.52ms
                    'graph_cst_lns':        11 [  3.95ms, 886.35ms] 113.22ms 248.33ms    1.25s        11 [ 28.13us, 100.06ms]  11.82ms  28.22ms 130.04ms
                    'graph_dec_lns':        10 [  2.75ms, 544.96ms] 136.00ms 208.90ms    1.36s        10 [  2.86us,  56.35ms]  14.27ms  22.54ms 142.74ms
                    'graph_var_lns':        10 [  2.35ms, 739.00ms] 145.27ms 273.13ms    1.45s        10 [  4.20us,  81.17ms]  15.19ms  29.60ms 151.87ms
                     'lb_relax_lns':         8 [128.40us,    1.57s] 218.38ms 512.74ms    1.75s         6 [637.29us, 190.66ms]  34.60ms  69.88ms 207.62ms
                   'lb_tree_search':         1 [   2.35s,    2.35s]    2.35s   0.00ns    2.35s         1 [364.36ms, 364.36ms] 364.36ms   0.00ns 364.36ms
                               'ls':        12 [ 61.32ms, 113.28ms]  97.13ms  12.81ms    1.17s        12 [ 44.21ms, 100.07ms]  95.37ms  15.43ms    1.14s
                               'ls':        12 [ 98.31ms, 119.69ms] 107.57ms   6.13ms    1.29s        12 [100.00ms, 100.09ms] 100.02ms  22.00us    1.20s
                           'ls_lin':        12 [ 93.34ms, 124.68ms] 100.25ms   8.22ms    1.20s        12 [100.00ms, 100.09ms] 100.02ms  26.02us    1.20s
                           'max_lp':         1 [   2.36s,    2.36s]    2.36s   0.00ns    2.36s         1 [453.08ms, 453.08ms] 453.08ms   0.00ns 453.08ms
                            'no_lp':         1 [   2.35s,    2.35s]    2.35s   0.00ns    2.35s         1 [255.74ms, 255.74ms] 255.74ms   0.00ns 255.74ms
              'objective_lb_search':         1 [   2.35s,    2.35s]    2.35s   0.00ns    2.35s         1 [339.97ms, 339.97ms] 339.97ms   0.00ns 339.97ms
         'objective_shaving_max_lp':        12 [598.80us,   7.75ms]   5.52ms   2.45ms  66.29ms        10 [  3.74us,  40.10us]  18.55us   8.40us 185.50us
          'objective_shaving_no_lp':        12 [  1.24ms,   6.75ms]   5.83ms   1.41ms  70.00ms        11 [ 12.36us,  61.25us]  22.14us  13.89us 243.52us
                          'probing':         1 [   2.35s,    2.35s]    2.35s   0.00ns    2.35s         1 [228.37ms, 228.37ms] 228.37ms   0.00ns 228.37ms
                     'pseudo_costs':         1 [   2.35s,    2.35s]    2.35s   0.00ns    2.35s         1 [495.12ms, 495.12ms] 495.12ms   0.00ns 495.12ms
                    'quick_restart':         1 [   2.36s,    2.36s]    2.36s   0.00ns    2.36s         1 [329.14ms, 329.14ms] 329.14ms   0.00ns 329.14ms
              'quick_restart_no_lp':         1 [   2.35s,    2.35s]    2.35s   0.00ns    2.35s         1 [350.45ms, 350.45ms] 350.45ms   0.00ns 350.45ms
                    'reduced_costs':         1 [   2.35s,    2.35s]    2.35s   0.00ns    2.35s         1 [293.75ms, 293.75ms] 293.75ms   0.00ns 293.75ms
                        'rins/rens':        12 [ 34.50us, 474.06ms] 108.95ms 145.23ms    1.31s         7 [ 38.89us,  47.64ms]  17.84ms  14.81ms 124.91ms
                      'rnd_cst_lns':        11 [353.30us, 494.99ms] 143.21ms 171.37ms    1.58s        10 [ 18.03us,  48.04ms]  15.10ms  17.14ms 151.00ms
                      'rnd_var_lns':        11 [  3.18ms, 812.54ms] 146.23ms 234.96ms    1.61s        11 [ 11.21us,  81.44ms]  14.52ms  23.69ms 159.75ms
         'scheduling_intervals_lns':         4 [ 11.73ms, 967.90ms] 448.97ms 397.54ms    1.80s         4 [193.39us, 100.01ms]  46.16ms  43.49ms 184.63ms
       'scheduling_precedences_lns':         7 [  3.74ms, 892.58ms] 170.02ms 304.34ms    1.19s         6 [ 81.61us, 100.00ms]  20.35ms  36.19ms 122.10ms
  'scheduling_resource_windows_lns':        12 [  1.14ms,  12.83ms]   7.88ms   2.75ms  94.52ms        11 [ 10.11us, 384.72us]  87.63us 109.44us 963.97us
       'scheduling_time_window_lns':         4 [ 34.69ms, 971.16ms] 331.19ms 374.72ms    1.32s         4 [  1.86ms, 100.00ms]  32.11ms  39.68ms 128.45ms
                'variables_shaving':         5 [ 11.96ms, 683.96ms] 253.58ms 269.85ms    1.27s         5 [312.38us, 100.11ms]  35.75ms  41.32ms 178.77ms

Search stats                        Bools  Conflicts  Branches  Restarts  BoolPropag  IntegerPropag
                     'default_lp':  3'437      5'544    19'715     2'370   2'917'953      1'483'171
                          'fixed':    763      5'740     8'107       358     632'118        889'772
                      'fs_random':      0          0         0         0           0              0
                'fs_random_no_lp':      0          0         0         0           0              0
        'fs_random_quick_restart':      0          0         0         0           0              0
  'fs_random_quick_restart_no_lp':      0          0         0         0           0              0
                 'lb_tree_search':    450        742    13'790     3'096     285'225        510'991
                         'max_lp':  2'397      3'593    14'694     2'122   1'417'083      1'049'684
                          'no_lp':    505      5'171    18'196     1'965     379'457      1'445'522
            'objective_lb_search':  1'400      5'518    17'398       943   1'566'918      1'305'130
                        'probing':    805      2'417    12'213     6'344     480'426        748'825
                   'pseudo_costs':  2'765      4'119    14'007     1'510   1'761'226      1'020'969
                  'quick_restart':  1'994      3'613    18'765     2'113   1'397'449      1'421'814
            'quick_restart_no_lp':  1'887      3'507    20'178     2'077   1'446'267      1'513'538
                  'reduced_costs':    485        857    14'842     5'789     214'941        381'415

SAT stats                           ClassicMinim  LitRemoved  LitLearned  LitForgotten  Subsumed  MClauses  MDecisions  MLitTrue  MSubsumed  MLitRemoved  MReused
                     'default_lp':         4'878      24'789      27'759             0        24     2'361       4'713         0      1'345        6'137    1'237
                          'fixed':         5'212      14'016     107'368             0        36         6           9         0          0            2        3
                      'fs_random':             0           0           0             0         0         0           0         0          0            0        0
                'fs_random_no_lp':             0           0           0             0         0         0           0         0          0            0        0
        'fs_random_quick_restart':             0           0           0             0         0         0           0         0          0            0        0
  'fs_random_quick_restart_no_lp':             0           0           0             0         0         0           0         0          0            0        0
                 'lb_tree_search':           527       3'716       8'188             0        19       474       1'335         2         76          467       46
                         'max_lp':         2'880      14'081      25'211             0        17     1'789       4'966        10        727        4'207      704
                          'no_lp':         4'791      27'496      51'320             0        62       949       3'312         0        270        1'548      206
            'objective_lb_search':         4'196      14'239      28'935             0        48     1'264       2'338         0        328        1'527      966
                        'probing':         1'951      17'609      25'083             0        30       242       1'469        13        159        1'893        6
                   'pseudo_costs':         3'044      11'450      33'103             0        10     1'142       2'938       159        503        3'811      373
                  'quick_restart':         2'955      12'752      25'429             0        21     1'234       2'578        22        424        1'751      555
            'quick_restart_no_lp':         3'056      15'859      29'634             0        22     1'231       3'683        17        348        1'804      246
                  'reduced_costs':           663       4'708       3'804             0        35        74         201         0         43          221        9

Lp stats                  Component  Iterations  AddedCuts  OPTIMAL  DUAL_F.  DUAL_U.
           'default_lp':          1           0          0   13'863        0        0
                'fixed':          1           0          0   43'313        0        0
       'lb_tree_search':          1      22'433        416    9'427      386        0
               'max_lp':          1      14'998      1'024    7'476      309        0
  'objective_lb_search':          1           0          0   25'117        0        0
              'probing':          1           0          0   24'952        0        0
         'pseudo_costs':          1      16'017      1'150    8'784      230        0
        'quick_restart':          1           0          0   17'883        0        0
        'reduced_costs':          1      12'935      1'445    3'865      270        0

Lp dimension              Final dimension of first component
           'default_lp':      0 rows, 101 columns, 0 entries
                'fixed':      0 rows, 101 columns, 0 entries
       'lb_tree_search':  117 rows, 101 columns, 319 entries
               'max_lp':  133 rows, 101 columns, 390 entries
  'objective_lb_search':      0 rows, 101 columns, 0 entries
              'probing':      0 rows, 101 columns, 0 entries
         'pseudo_costs':  147 rows, 101 columns, 398 entries
        'quick_restart':      0 rows, 101 columns, 0 entries
        'reduced_costs':  226 rows, 101 columns, 761 entries

Lp debug                  CutPropag  CutEqPropag  Adjust  Overflow     Bad  BadScaling
           'default_lp':          0            0       0         0       0           0
                'fixed':          0            0       0         0       0           0
       'lb_tree_search':          0            9       0         0   4'422           0
               'max_lp':          0            6       0         0   4'109           0
  'objective_lb_search':          0            0       0         0       0           0
              'probing':          0            0       0         0       0           0
         'pseudo_costs':          0           22       0         0   4'100           0
        'quick_restart':          0            0       0         0       0           0
        'reduced_costs':          0           46       0         0  15'914           0

Lp pool                   Constraints  Updates  Simplif  Merged  Shortened  Split  Strenghtened    Cuts/Call
           'default_lp':          100        0        0       0          0      0             0          0/0
                'fixed':          100        0        0       0          0      0             0          0/0
       'lb_tree_search':          496      523       36      20          0      0             0      416/621
               'max_lp':          998      844      616     126          0      0             3  1'024/1'700
  'objective_lb_search':          100        0        0       0          0      0             0          0/0
              'probing':          100        0        0       0          0      0             0          0/0
         'pseudo_costs':          991      497      772     259          0      0             5  1'150/1'729
        'quick_restart':          100        0        0       0          0      0             0          0/0
        'reduced_costs':        1'410    1'031    1'905     135          0      6            32  1'445/2'563

Lp Cut                                                max_lp  reduced_costs  pseudo_costs  lb_tree_search
                                              CG_FF:       1              6             -               -
                                               CG_K:       7             43             8               3
                                               CG_R:      26             80            34              10
                                            MIR_1_K:       3             10             3               1
                                            MIR_1_R:       7              9            12               -
                                            MIR_2_K:       3              -             -               1
                                            MIR_2_R:       1              6             3               -
                                            MIR_3_K:       -              2             1               -
                                            MIR_3_R:       -              3             -               1
                                            MIR_4_K:       1              1             1               -
                                            MIR_4_R:       -              3             1               -
                                            MIR_5_K:       1              -             -               -
                                            MIR_5_R:       1              1             2               -
                                            MIR_6_K:       -              -             -               1
                                            MIR_6_R:       -              4             -               1
                  NoOverlapCompletionTimeExhaustive:      91            110            65              22
           NoOverlapCompletionTimeExhaustive_lifted:      58             80            62               8
  NoOverlapCompletionTimeExhaustive_lifted_weighted:     112            146           134              61
         NoOverlapCompletionTimeExhaustive_weighted:     140            233           127              56
                    NoOverlapCompletionTimeQueyrane:      76            127           109              46
             NoOverlapCompletionTimeQueyrane_lifted:     116            176           170              56
                        NoOverlapDetectedPrecedence:      27             20            21              13
                          NoOverlapDisjunctionOnEnd:     136            193            73              38
                        NoOverlapDisjunctionOnStart:     209            141           309              85
                                        ZERO_HALF_R:       8             51            15              13

LNS stats                             Improv/Calls  Closed  Difficulty  TimeLimit
                    'graph_arc_lns':         11/11     91%    9.82e-01       0.10
                    'graph_cst_lns':         11/11     91%    9.81e-01       0.10
                    'graph_dec_lns':          9/10    100%    9.86e-01       0.10
                    'graph_var_lns':         10/10     90%    9.76e-01       0.10
                     'lb_relax_lns':           6/6     83%    9.16e-01       0.50
                        'rins/rens':           8/8     88%    9.57e-01       0.10
                      'rnd_cst_lns':          9/11     91%    9.82e-01       0.10
                      'rnd_var_lns':         10/11     91%    9.82e-01       0.10
         'scheduling_intervals_lns':           4/4     75%    8.21e-01       0.10
       'scheduling_precedences_lns':           6/6     83%    9.16e-01       0.10
  'scheduling_resource_windows_lns':         12/12    100%    9.91e-01       0.10
       'scheduling_time_window_lns':           4/4     50%    5.97e-01       0.10

LS stats                                    Batches  Restarts/Perturbs  LinMoves  GenMoves  CompoundMoves  Bactracks  WeightUpdates  ScoreComputed
                             'fj_restart':        1                  1         0     2'090              0          0          1'146        491'364
                         'ls_lin_restart':        3                  3         0     7'466              0          0          3'317      1'462'870
                'ls_lin_restart_compound':        2                  2         0    34'661            400     17'128            455        894'261
        'ls_lin_restart_compound_perturb':        1                  1         0    17'928            183      8'870            274        440'678
                   'ls_lin_restart_decay':        2                  2         0     8'684              0          0            469        968'908
          'ls_lin_restart_decay_compound':        1                  1         0     8'917            766      4'075             43        470'114
  'ls_lin_restart_decay_compound_perturb':        2                  2         0    22'760          2'051     10'350            127        927'743
           'ls_lin_restart_decay_perturb':        1                  1         0     4'266              0          0            243        484'336
                             'ls_restart':        2                  2         0     5'042              0          0          2'379        975'520
                    'ls_restart_compound':        4                  4         0    54'608          1'184     26'705            715      1'817'675
            'ls_restart_compound_perturb':        2                  2         0    27'083            739     13'168            325        910'285
                       'ls_restart_decay':        7                  7         0    28'169              0          0          1'630      3'119'684
              'ls_restart_decay_compound':        1                  1         0     9'294            716      4'289             48        469'030
      'ls_restart_decay_compound_perturb':        4                  4         0    37'665          3'252     17'193            180      1'877'191
                     'ls_restart_perturb':        4                  4         3     9'613              0          0          2'542      1'954'389

Solutions (27)                        Num     Rank
                       'default_lp':    1    [5,5]
                            'fixed':    2  [10,11]
                    'graph_arc_lns':    1    [6,6]
                    'graph_cst_lns':    3   [3,17]
                    'graph_dec_lns':    1  [21,21]
                    'graph_var_lns':    2   [7,20]
              'lb_relax_lns_bool_h':    1  [12,12]
                            'no_lp':    2    [1,2]
                    'quick_restart':    4   [4,23]
              'quick_restart_no_lp':    5   [9,26]
                      'rnd_cst_lns':    2  [19,27]
                      'rnd_var_lns':    1  [25,25]
  'scheduling_resource_windows_lns':    1  [18,18]
       'scheduling_time_window_lns':    1  [22,22]

Objective bounds               Num
            'initial_domain':    1
                     'no_lp':    1
       'objective_lb_search':    5
  'objective_shaving_max_lp':    1
   'objective_shaving_no_lp':    2
             'reduced_costs':   34

Solution repositories    Added  Queried  Synchro
  'feasible solutions':     84      266       60
   'fj solution hints':      0        0        0
        'lp solutions':     95        7       56
                'pump':     11        5

Improving bounds shared      Num  Sym
            'default_lp':    418    0
                 'fixed':    202    0
                'max_lp':     27    0
                 'no_lp':    350    0
   'objective_lb_search':    109    0
               'probing':    267    0
          'pseudo_costs':     30    0
         'quick_restart':  1'148    0
   'quick_restart_no_lp':  1'238    0
         'reduced_costs':     50    0

CpSolverResponse summary:
status: OPTIMAL
objective: 930
best_bound: 930
integers: 101
booleans: 0
conflicts: 0
branches: 0
propagations: 0
integer_propagations: 0
restarts: 0
lp_iterations: 0
walltime: 2.38459
usertime: 2.38459
deterministic_time: 9.30005
gap_integral: 20.1353
solution_fingerprint: 0x3b40eff9228a3bbc

